; benchmark generated from python API
(set-info :status unknown)
(declare-fun x_day () Int)
(declare-fun x_month () Int)
(declare-fun x_year () Int)
(declare-fun x_epoch () Int)
(declare-fun x_shift_period_598028_day () Int)
(declare-fun x_shift_period_598028_month () Int)
(declare-fun x_shift_period_598028_year () Int)
(declare-fun x_shift_period_598028_epoch () Int)
(declare-fun x_shift_period_600277_day () Int)
(declare-fun x_shift_period_600277_month () Int)
(declare-fun x_shift_period_600277_year () Int)
(declare-fun x_shift_period_600277_epoch () Int)
(assert
 (let (($x638 (= (mod x_year 4) 0)))
 (let (($x273 (= (mod x_year 100) 0)))
 (let (($x679 (= (mod x_year 400) 0)))
 (let (($x3912 (ite $x679 true (ite $x273 false $x638))))
 (let (($x1580 (= x_month 9)))
 (let ((?x1526 (ite $x1580 243 (ite (= x_month 10) 273 (ite (= x_month 11) 304 334)))))
 (let (($x399 (= x_month 6)))
 (let ((?x490 (ite $x399 151 (ite (= x_month 7) 181 (ite (= x_month 8) 212 ?x1526)))))
 (let (($x1789 (= x_month 4)))
 (let ((?x610 (ite (= x_month 3) 59 (ite $x1789 90 (ite (= x_month 5) 120 ?x490)))))
 (let (($x248 (= x_month 2)))
 (let (($x113 (= x_month 1)))
 (let ((?x1519 (ite $x113 0 (ite $x248 31 ?x610))))
 (let ((?x420 (- (+ (* 365 (- x_year 1)) (div (- x_year 1) 4)) (div (- x_year 1) 100))))
 (let ((?x1324 (+ (+ ?x420 (div (- x_year 1) 400)) (+ ?x1519 (ite (and $x3912 (> x_month 2)) 1 0)))))
 (let (($x3906 (<= x_year 2400)))
 (let (($x590 (>= x_year 1600)))
 (let ((?x941 (ite (or $x1789 $x399 $x1580 (= x_month 11)) 30 31)))
 (let ((?x139 (ite $x248 (ite $x3912 29 28) ?x941)))
 (let (($x444 (>= x_day 1)))
 (let (($x1167 (<= x_month 12)))
 (let (($x1264 (>= x_month 1)))
 (and $x1264 $x1167 $x444 (<= x_day ?x139) $x590 $x3906 (= x_epoch (+ ?x1324 (- x_day 1)))))))))))))))))))))))))))
(assert
 (let (($x444 (>= x_day 1)))
 (let (($x3420 (= x_year 2019)))
 (let (($x868 (and $x3420 (= x_month 12) $x444)))
 (or (> x_year 2019) (and $x3420 (> x_month 12)) $x868)))))
(assert
 (let (($x248 (= x_month 2)))
 (let (($x1581 (= x_year 2020)))
 (let (($x1240 (and $x1581 $x248 (<= x_day 29))))
 (or (< x_year 2020) (and $x1581 (< x_month 2)) $x1240)))))
(assert
 (let (($x2536 (= (mod x_shift_period_598028_year 4) 0)))
 (let (($x1525 (= (mod x_shift_period_598028_year 100) 0)))
 (let (($x3472 (= (mod x_shift_period_598028_year 400) 0)))
 (let (($x3399 (ite $x3472 true (ite $x1525 false $x2536))))
 (let ((?x1041 (ite (= x_shift_period_598028_month 10) 273 (ite (= x_shift_period_598028_month 11) 304 334))))
 (let (($x1646 (= x_shift_period_598028_month 9)))
 (let ((?x696 (ite (= x_shift_period_598028_month 7) 181 (ite (= x_shift_period_598028_month 8) 212 (ite $x1646 243 ?x1041)))))
 (let (($x728 (= x_shift_period_598028_month 6)))
 (let (($x2510 (= x_shift_period_598028_month 4)))
 (let ((?x2775 (ite $x2510 90 (ite (= x_shift_period_598028_month 5) 120 (ite $x728 151 ?x696)))))
 (let (($x3563 (= x_shift_period_598028_month 2)))
 (let ((?x3904 (ite (= x_shift_period_598028_month 1) 0 (ite $x3563 31 (ite (= x_shift_period_598028_month 3) 59 ?x2775)))))
 (let ((?x3637 (+ ?x3904 (ite (and $x3399 (> x_shift_period_598028_month 2)) 1 0))))
 (let ((?x3234 (+ (* 365 (- x_shift_period_598028_year 1)) (div (- x_shift_period_598028_year 1) 4))))
 (let ((?x2776 (+ (- ?x3234 (div (- x_shift_period_598028_year 1) 100)) (div (- x_shift_period_598028_year 1) 400))))
 (let (($x2846 (= x_shift_period_598028_epoch (+ (+ ?x2776 ?x3637) (- x_shift_period_598028_day 1)))))
 (let (($x2107 (<= x_shift_period_598028_year 2400)))
 (let (($x2136 (>= x_shift_period_598028_year 1600)))
 (let ((?x2128 (ite (or $x2510 $x728 $x1646 (= x_shift_period_598028_month 11)) 30 31)))
 (let (($x3418 (>= x_shift_period_598028_day 1)))
 (let (($x3421 (<= x_shift_period_598028_month 12)))
 (let (($x3419 (>= x_shift_period_598028_month 1)))
 (and $x3419 $x3421 $x3418 (<= x_shift_period_598028_day (ite $x3563 (ite $x3399 29 28) ?x2128)) $x2136 $x2107 $x2846))))))))))))))))))))))))
(assert
 (let ((?x468 (* 12 x_year)))
 (let ((?x283 (+ ?x468 (- x_month 1))))
 (let ((?x1874 (+ ?x283 12)))
 (let ((?x3040 (div ?x1874 12)))
 (= x_shift_period_598028_year ?x3040))))))
(assert
 (let ((?x2635 (+ (mod (+ (+ (* 12 x_year) (- x_month 1)) 12) 12) 1)))
 (= x_shift_period_598028_month ?x2635)))
(assert
 (let ((?x2635 (+ (mod (+ (+ (* 12 x_year) (- x_month 1)) 12) 12) 1)))
 (let ((?x1322 (ite (or (= ?x2635 4) (= ?x2635 6) (= ?x2635 9) (= ?x2635 11)) 30 31)))
 (let ((?x468 (* 12 x_year)))
 (let ((?x283 (+ ?x468 (- x_month 1))))
 (let ((?x1874 (+ ?x283 12)))
 (let ((?x3040 (div ?x1874 12)))
 (let (($x2090 (ite (= (mod ?x3040 400) 0) true (ite (= (mod ?x3040 100) 0) false (= (mod ?x3040 4) 0)))))
 (let ((?x3008 (ite (= ?x2635 2) (ite $x2090 29 28) ?x1322)))
 (let ((?x2939 (ite (<= x_day ?x3008) x_day ?x3008)))
 (let (($x284 (= x_month 11)))
 (let (($x1580 (= x_month 9)))
 (let (($x399 (= x_month 6)))
 (let (($x1789 (= x_month 4)))
 (let ((?x941 (ite (or $x1789 $x399 $x1580 $x284) 30 31)))
 (let (($x638 (= (mod x_year 4) 0)))
 (let (($x273 (= (mod x_year 100) 0)))
 (let (($x679 (= (mod x_year 400) 0)))
 (let (($x3912 (ite $x679 true (ite $x273 false $x638))))
 (let (($x248 (= x_month 2)))
 (let ((?x139 (ite $x248 (ite $x3912 29 28) ?x941)))
 (let (($x239 (= x_day ?x139)))
 (= x_shift_period_598028_day (ite false (ite $x239 ?x3008 ?x2939) ?x2939))))))))))))))))))))))))
(assert
 (let (($x3223 (= (mod x_shift_period_600277_year 4) 0)))
 (let (($x3502 (= (mod x_shift_period_600277_year 100) 0)))
 (let (($x2540 (= (mod x_shift_period_600277_year 400) 0)))
 (let (($x2767 (ite $x2540 true (ite $x3502 false $x3223))))
 (let ((?x781 (ite (= x_shift_period_600277_month 10) 273 (ite (= x_shift_period_600277_month 11) 304 334))))
 (let (($x1123 (= x_shift_period_600277_month 9)))
 (let ((?x3239 (ite (= x_shift_period_600277_month 7) 181 (ite (= x_shift_period_600277_month 8) 212 (ite $x1123 243 ?x781)))))
 (let (($x213 (= x_shift_period_600277_month 6)))
 (let (($x3724 (= x_shift_period_600277_month 4)))
 (let ((?x706 (ite $x3724 90 (ite (= x_shift_period_600277_month 5) 120 (ite $x213 151 ?x3239)))))
 (let (($x2541 (= x_shift_period_600277_month 2)))
 (let ((?x1666 (ite (= x_shift_period_600277_month 1) 0 (ite $x2541 31 (ite (= x_shift_period_600277_month 3) 59 ?x706)))))
 (let ((?x874 (+ ?x1666 (ite (and $x2767 (> x_shift_period_600277_month 2)) 1 0))))
 (let ((?x1097 (+ (* 365 (- x_shift_period_600277_year 1)) (div (- x_shift_period_600277_year 1) 4))))
 (let ((?x3194 (+ (- ?x1097 (div (- x_shift_period_600277_year 1) 100)) (div (- x_shift_period_600277_year 1) 400))))
 (let (($x2950 (= x_shift_period_600277_epoch (+ (+ ?x3194 ?x874) (- x_shift_period_600277_day 1)))))
 (let (($x2792 (<= x_shift_period_600277_year 2400)))
 (let (($x1927 (>= x_shift_period_600277_year 1600)))
 (let ((?x2621 (ite (or $x3724 $x213 $x1123 (= x_shift_period_600277_month 11)) 30 31)))
 (let (($x701 (>= x_shift_period_600277_day 1)))
 (let (($x578 (<= x_shift_period_600277_month 12)))
 (let (($x2254 (>= x_shift_period_600277_month 1)))
 (and $x2254 $x578 $x701 (<= x_shift_period_600277_day (ite $x2541 (ite $x2767 29 28) ?x2621)) $x1927 $x2792 $x2950))))))))))))))))))))))))
(assert
 (let ((?x1349 (+ (mod (+ (+ (* 12 x_year) (- x_month 1)) 0) 12) 1)))
 (let (($x1562 (= ?x1349 11)))
 (let (($x973 (= ?x1349 9)))
 (let (($x667 (= ?x1349 6)))
 (let (($x3845 (= ?x1349 4)))
 (let ((?x468 (* 12 x_year)))
 (let ((?x283 (+ ?x468 (- x_month 1))))
 (let ((?x3685 (+ ?x283 0)))
 (let ((?x291 (div ?x3685 12)))
 (let (($x2009 (ite (= (mod ?x291 400) 0) true (ite (= (mod ?x291 100) 0) false (= (mod ?x291 4) 0)))))
 (let (($x337 (= ?x1349 2)))
 (let ((?x3120 (ite $x337 (ite $x2009 29 28) (ite (or $x3845 $x667 $x973 $x1562) 30 31))))
 (let ((?x1147 (ite (<= x_day ?x3120) x_day ?x3120)))
 (let (($x284 (= x_month 11)))
 (let (($x1580 (= x_month 9)))
 (let (($x399 (= x_month 6)))
 (let (($x1789 (= x_month 4)))
 (let ((?x941 (ite (or $x1789 $x399 $x1580 $x284) 30 31)))
 (let (($x638 (= (mod x_year 4) 0)))
 (let (($x273 (= (mod x_year 100) 0)))
 (let (($x679 (= (mod x_year 400) 0)))
 (let (($x3912 (ite $x679 true (ite $x273 false $x638))))
 (let (($x248 (= x_month 2)))
 (let ((?x139 (ite $x248 (ite $x3912 29 28) ?x941)))
 (let (($x239 (= x_day ?x139)))
 (let ((?x546 (ite (= ?x1349 8) 212 (ite $x973 243 (ite (= ?x1349 10) 273 (ite $x1562 304 334))))))
 (let ((?x467 (ite (= ?x1349 5) 120 (ite $x667 151 (ite (= ?x1349 7) 181 ?x546)))))
 (let ((?x1199 (ite (= ?x1349 1) 0 (ite $x337 31 (ite (= ?x1349 3) 59 (ite $x3845 90 ?x467))))))
 (let ((?x266 (- (+ (* 365 (- ?x291 1)) (div (- ?x291 1) 4)) (div (- ?x291 1) 100))))
 (let ((?x347 (+ (+ ?x266 (div (- ?x291 1) 400)) (+ ?x1199 (ite (and $x2009 (> ?x1349 2)) 1 0)))))
 (let ((?x338 (+ ?x347 (- (ite false (ite $x239 ?x3120 ?x1147) ?x1147) 1))))
 (= x_shift_period_600277_epoch (+ ?x338 366))))))))))))))))))))))))))))))))))
(assert
 (not (= x_shift_period_598028_epoch x_shift_period_600277_epoch)))
(check-sat)
